language ESSENCE' 1.0

letting C_FunctionND be
        [[0, 0, 0, 0, 0, 0, 0, 0, 0, 0, 0, 0, 0, 0, 0, 0; int(0..15)],
         [1, 0, 0, 0, 0, 0, 0, 0, 0, 0, 0, 0, 0, 0, 0, 0; int(0..15)],
         [1, 0, 0, 0, 0, 0, 0, 0, 0, 0, 0, 0, 0, 0, 0, 0; int(0..15)],
         [1, 0, 0, 0, 0, 0, 0, 0, 0, 0, 0, 0, 0, 0, 0, 0; int(0..15)],
         [1, 0, 0, 0, 0, 0, 0, 0, 0, 0, 0, 0, 0, 0, 0, 0; int(0..15)],
         [1, 0, 0, 0, 0, 0, 0, 0, 0, 0, 0, 0, 0, 0, 0, 0; int(0..15)],
         [1, 0, 0, 0, 0, 0, 0, 0, 0, 0, 0, 0, 0, 0, 0, 0; int(0..15)],
         [0, 1, 1, 0, 0, 0, 0, 0, 0, 0, 0, 0, 0, 0, 0, 0; int(0..15)],
         [0, 1, 0, 1, 0, 0, 1, 0, 0, 0, 0, 0, 0, 0, 0, 0; int(0..15)],
         [0, 1, 0, 0, 1, 0, 0, 0, 0, 0, 0, 0, 0, 0, 0, 0; int(0..15)],
         [0, 1, 0, 0, 0, 1, 0, 0, 0, 0, 0, 0, 0, 0, 0, 0; int(0..15)],
         [0, 0, 1, 1, 0, 0, 0, 0, 0, 0, 0, 0, 0, 0, 0, 0; int(0..15)],
         [0, 0, 1, 0, 1, 1, 1, 0, 0, 0, 0, 0, 0, 0, 0, 0; int(0..15)],
         [0, 0, 0, 1, 1, 0, 0, 0, 0, 0, 0, 0, 0, 0, 0, 0; int(0..15)],
         [0, 0, 0, 1, 0, 1, 0, 0, 0, 0, 0, 0, 0, 0, 0, 0; int(0..15)],
         [0, 0, 0, 0, 0, 0, 0, 1, 1, 1, 1, 1, 1, 1, 1, 0; int(0..15)];
             int(0..15)]
$ Visualisation for C_FunctionND
$ 0 0 0 0 0 0 0 0 0 0 0 0 0 0 0 0
$ 1 0 0 0 0 0 0 0 0 0 0 0 0 0 0 0
$ 1 0 0 0 0 0 0 0 0 0 0 0 0 0 0 0
$ 1 0 0 0 0 0 0 0 0 0 0 0 0 0 0 0
$ 1 0 0 0 0 0 0 0 0 0 0 0 0 0 0 0
$ 1 0 0 0 0 0 0 0 0 0 0 0 0 0 0 0
$ 1 0 0 0 0 0 0 0 0 0 0 0 0 0 0 0
$ 0 1 1 0 0 0 0 0 0 0 0 0 0 0 0 0
$ 0 1 0 1 0 0 1 0 0 0 0 0 0 0 0 0
$ 0 1 0 0 1 0 0 0 0 0 0 0 0 0 0 0
$ 0 1 0 0 0 1 0 0 0 0 0 0 0 0 0 0
$ 0 0 1 1 0 0 0 0 0 0 0 0 0 0 0 0
$ 0 0 1 0 1 1 1 0 0 0 0 0 0 0 0 0
$ 0 0 0 1 1 0 0 0 0 0 0 0 0 0 0 0
$ 0 0 0 1 0 1 0 0 0 0 0 0 0 0 0 0
$ 0 0 0 0 0 0 0 1 1 1 1 1 1 1 1 0

letting J_FunctionND be
        [[0, 1, 2, 3, 4, 5, 6, 7, 8, 9, 10, 11, 12, 13, 14, 15; int(0..15)],
         [1, 1, 7, 8, 9, 10, 8, 7, 8, 9, 10, 15, 15, 15, 15, 15; int(0..15)],
         [2, 7, 2, 11, 12, 12, 12, 7, 15, 15, 15, 11, 12, 15, 15, 15; int(0..15)],
         [3, 8, 11, 3, 13, 14, 8, 15, 8, 15, 15, 11, 15, 13, 14, 15; int(0..15)],
         [4, 9, 12, 13, 4, 12, 12, 15, 15, 9, 15, 15, 12, 13, 15, 15; int(0..15)],
         [5, 10, 12, 14, 12, 5, 12, 15, 15, 15, 10, 15, 12, 15, 14, 15; int(0..15)],
         [6, 8, 12, 8, 12, 12, 6, 15, 8, 15, 15, 15, 12, 15, 15, 15; int(0..15)],
         [7, 7, 7, 15, 15, 15, 15, 7, 15, 15, 15, 15, 15, 15, 15, 15; int(0..15)],
         [8, 8, 15, 8, 15, 15, 8, 15, 8, 15, 15, 15, 15, 15, 15, 15; int(0..15)],
         [9, 9, 15, 15, 9, 15, 15, 15, 15, 9, 15, 15, 15, 15, 15, 15; int(0..15)],
         [10, 10, 15, 15, 15, 10, 15, 15, 15, 15, 10, 15, 15, 15, 15, 15; int(0..15)],
         [11, 15, 11, 11, 15, 15, 15, 15, 15, 15, 15, 11, 15, 15, 15, 15; int(0..15)],
         [12, 15, 12, 15, 12, 12, 12, 15, 15, 15, 15, 15, 12, 15, 15, 15; int(0..15)],
         [13, 15, 15, 13, 13, 15, 15, 15, 15, 15, 15, 15, 15, 13, 15, 15; int(0..15)],
         [14, 15, 15, 14, 15, 14, 15, 15, 15, 15, 15, 15, 15, 15, 14, 15; int(0..15)],
         [15, 15, 15, 15, 15, 15, 15, 15, 15, 15, 15, 15, 15, 15, 15, 15; int(0..15)];
             int(0..15)]
$ Visualisation for J_FunctionND
$  0  1  2  3  4  5  6  7  8  9 10 11 12 13 14 15
$  1  1  7  8  9 10  8  7  8  9 10 15 15 15 15 15
$  2  7  2 11 12 12 12  7 15 15 15 11 12 15 15 15
$  3  8 11  3 13 14  8 15  8 15 15 11 15 13 14 15
$  4  9 12 13  4 12 12 15 15  9 15 15 12 13 15 15
$  5 10 12 14 12  5 12 15 15 15 10 15 12 15 14 15
$  6  8 12  8 12 12  6 15  8 15 15 15 12 15 15 15
$  7  7  7 15 15 15 15  7 15 15 15 15 15 15 15 15
$  8  8 15  8 15 15  8 15  8 15 15 15 15 15 15 15
$  9  9 15 15  9 15 15 15 15  9 15 15 15 15 15 15
$ 10 10 15 15 15 10 15 15 15 15 10 15 15 15 15 15
$ 11 15 11 11 15 15 15 15 15 15 15 11 15 15 15 15
$ 12 15 12 15 12 12 12 15 15 15 15 15 12 15 15 15
$ 13 15 15 13 13 15 15 15 15 15 15 15 15 13 15 15
$ 14 15 15 14 15 14 15 15 15 15 15 15 15 15 14 15
$ 15 15 15 15 15 15 15 15 15 15 15 15 15 15 15 15

letting M_FunctionND be
        [[0, 0, 0, 0, 0, 0, 0, 0, 0, 0, 0, 0, 0, 0, 0, 0; int(0..15)],
         [0, 1, 0, 0, 0, 0, 0, 1, 1, 1, 1, 0, 0, 0, 0, 1; int(0..15)],
         [0, 0, 2, 0, 0, 0, 0, 2, 0, 0, 0, 2, 2, 0, 0, 2; int(0..15)],
         [0, 0, 0, 3, 0, 0, 0, 0, 3, 0, 0, 3, 0, 3, 3, 3; int(0..15)],
         [0, 0, 0, 0, 4, 0, 0, 0, 0, 4, 0, 0, 4, 4, 0, 4; int(0..15)],
         [0, 0, 0, 0, 0, 5, 0, 0, 0, 0, 5, 0, 5, 0, 5, 5; int(0..15)],
         [0, 0, 0, 0, 0, 0, 6, 0, 6, 0, 0, 0, 6, 0, 0, 6; int(0..15)],
         [0, 1, 2, 0, 0, 0, 0, 7, 1, 1, 1, 2, 2, 0, 0, 7; int(0..15)],
         [0, 1, 0, 3, 0, 0, 6, 1, 8, 1, 1, 3, 6, 3, 3, 8; int(0..15)],
         [0, 1, 0, 0, 4, 0, 0, 1, 1, 9, 1, 0, 4, 4, 0, 9; int(0..15)],
         [0, 1, 0, 0, 0, 5, 0, 1, 1, 1, 10, 0, 5, 0, 5, 10; int(0..15)],
         [0, 0, 2, 3, 0, 0, 0, 2, 3, 0, 0, 11, 2, 3, 3, 11; int(0..15)],
         [0, 0, 2, 0, 4, 5, 6, 2, 6, 4, 5, 2, 12, 4, 5, 12; int(0..15)],
         [0, 0, 0, 3, 4, 0, 0, 0, 3, 4, 0, 3, 4, 13, 3, 13; int(0..15)],
         [0, 0, 0, 3, 0, 5, 0, 0, 3, 0, 5, 3, 5, 3, 14, 14; int(0..15)],
         [0, 1, 2, 3, 4, 5, 6, 7, 8, 9, 10, 11, 12, 13, 14, 15; int(0..15)];
             int(0..15)]
$ Visualisation for M_FunctionND
$  0  0  0  0  0  0  0  0  0  0  0  0  0  0  0  0
$  0  1  0  0  0  0  0  1  1  1  1  0  0  0  0  1
$  0  0  2  0  0  0  0  2  0  0  0  2  2  0  0  2
$  0  0  0  3  0  0  0  0  3  0  0  3  0  3  3  3
$  0  0  0  0  4  0  0  0  0  4  0  0  4  4  0  4
$  0  0  0  0  0  5  0  0  0  0  5  0  5  0  5  5
$  0  0  0  0  0  0  6  0  6  0  0  0  6  0  0  6
$  0  1  2  0  0  0  0  7  1  1  1  2  2  0  0  7
$  0  1  0  3  0  0  6  1  8  1  1  3  6  3  3  8
$  0  1  0  0  4  0  0  1  1  9  1  0  4  4  0  9
$  0  1  0  0  0  5  0  1  1  1 10  0  5  0  5 10
$  0  0  2  3  0  0  0  2  3  0  0 11  2  3  3 11
$  0  0  2  0  4  5  6  2  6  4  5  2 12  4  5 12
$  0  0  0  3  4  0  0  0  3  4  0  3  4 13  3 13
$  0  0  0  3  0  5  0  0  3  0  5  3  5  3 14 14
$  0  1  2  3  4  5  6  7  8  9 10 11 12 13 14 15

letting R_Function1D be [0, 1, 1, 1, 1, 1, 1, 2, 2, 2, 2, 2, 2, 2, 2, 3; int(0..15)]
